p cnf 390 680
43 46 49 51 52 0
43 46 49 51 -52 0
43 46 49 -51 52 0
43 46 49 -51 -52 0
29 -43 46 53 54 0
29 -43 46 53 -54 0
29 -43 46 -53 54 0
29 -43 46 -53 -54 0
16 -29 -43 55 56 0
16 -29 -43 55 -56 0
16 -29 -43 -55 56 0
16 -29 -43 -55 -56 0
16 46 -49 57 58 0
16 46 -49 57 -58 0
16 46 -49 -57 58 0
16 46 -49 -57 -58 0
24 36 -46 59 60 0
24 36 -46 59 -60 0
24 36 -46 -59 60 0
24 36 -46 -59 -60 0
-28 36 -46 61 62 0
-28 36 -46 61 -62 0
-28 36 -46 -61 62 0
-28 36 -46 -61 -62 0
24 -36 -46 63 64 0
24 -36 -46 63 -64 0
24 -36 -46 -63 64 0
24 -36 -46 -63 -64 0
-24 25 34 65 66 0
-24 25 34 65 -66 0
-24 25 34 -65 66 0
-24 25 34 -65 -66 0
6 -25 34 67 68 0
6 -25 34 67 -68 0
6 -25 34 -67 68 0
6 -25 34 -67 -68 0
16 -24 -34 69 70 0
16 -24 -34 69 -70 0
16 -24 -34 -69 70 0
16 -24 -34 -69 -70 0
-6 16 -24 71 72 0
-6 16 -24 71 -72 0
-6 16 -24 -71 72 0
-6 16 -24 -71 -72 0
5 9 32 73 74 0
5 9 32 73 -74 0
5 9 32 -73 74 0
5 9 32 -73 -74 0
5 -16 -32 75 76 0
5 -16 -32 75 -76 0
5 -16 -32 -75 76 0
5 -16 -32 -75 -76 0
-5 9 25 77 78 0
-5 9 25 77 -78 0
-5 9 25 -77 78 0
-5 9 25 -77 -78 0
-5 9 -25 79 80 0
-5 9 -25 79 -80 0
-5 9 -25 -79 80 0
-5 9 -25 -79 -80 0
-9 -16 17 81 82 0
-9 -16 17 81 -82 0
-9 -16 17 -81 82 0
-9 -16 17 -81 -82 0
14 24 35 83 84 0
14 24 35 83 -84 0
14 24 35 -83 84 0
14 24 35 -83 -84 0
-5 -17 35 85 86 0
-5 -17 35 85 -86 0
-5 -17 35 -85 86 0
-5 -17 35 -85 -86 0
-9 -17 35 87 88 0
-9 -17 35 87 -88 0
-9 -17 35 -87 88 0
-9 -17 35 -87 -88 0
11 -35 -49 89 90 0
11 -35 -49 89 -90 0
11 -35 -49 -89 90 0
11 -35 -49 -89 -90 0
-11 -35 -49 91 92 0
-11 -35 -49 91 -92 0
-11 -35 -49 -91 92 0
-11 -35 -49 -91 -92 0
-26 -35 -49 93 94 0
-26 -35 -49 93 -94 0
-26 -35 -49 -93 94 0
-26 -35 -49 -93 -94 0
-9 24 49 95 96 0
-9 24 49 95 -96 0
-9 24 49 -95 96 0
-9 24 49 -95 -96 0
-6 -35 49 97 98 0
-6 -35 49 97 -98 0
-6 -35 49 -97 98 0
-6 -35 49 -97 -98 0
2 -24 -28 99 100 0
2 -24 -28 99 -100 0
2 -24 -28 -99 100 0
2 -24 -28 -99 -100 0
-2 27 -28 101 102 0
-2 27 -28 101 -102 0
-2 27 -28 -101 102 0
-2 27 -28 -101 -102 0
-24 -27 -28 103 104 0
-24 -27 -28 103 -104 0
-24 -27 -28 -103 104 0
-24 -27 -28 -103 -104 0
26 40 42 105 106 0
26 40 42 105 -106 0
26 40 42 -105 106 0
26 40 42 -105 -106 0
28 40 42 107 108 0
28 40 42 107 -108 0
28 40 42 -107 108 0
28 40 42 -107 -108 0
28 40 -42 109 110 0
28 40 -42 109 -110 0
28 40 -42 -109 110 0
28 40 -42 -109 -110 0
26 28 -40 111 112 0
26 28 -40 111 -112 0
26 28 -40 -111 112 0
26 28 -40 -111 -112 0
-14 35 -40 113 114 0
-14 35 -40 113 -114 0
-14 35 -40 -113 114 0
-14 35 -40 -113 -114 0
-14 -28 -35 115 116 0
-14 -28 -35 115 -116 0
-14 -28 -35 -115 116 0
-14 -28 -35 -115 -116 0
3 27 49 117 118 0
3 27 49 117 -118 0
3 27 49 -117 118 0
3 27 49 -117 -118 0
-3 -14 -26 119 120 0
-3 -14 -26 119 -120 0
-3 -14 -26 -119 120 0
-3 -14 -26 -119 -120 0
-14 -27 37 121 122 0
-14 -27 37 121 -122 0
-14 -27 37 -121 122 0
-14 -27 37 -121 -122 0
9 -27 -37 123 124 0
9 -27 -37 123 -124 0
9 -27 -37 -123 124 0
9 -27 -37 -123 -124 0
-9 -14 -40 125 126 0
-9 -14 -40 125 -126 0
-9 -14 -40 -125 126 0
-9 -14 -40 -125 -126 0
6 28 42 127 128 0
6 28 42 127 -128 0
6 28 42 -127 128 0
6 28 42 -127 -128 0
28 42 -44 129 130 0
28 42 -44 129 -130 0
28 42 -44 -129 130 0
28 42 -44 -129 -130 0
6 -19 42 131 132 0
6 -19 42 131 -132 0
6 -19 42 -131 132 0
6 -19 42 -131 -132 0
6 -42 45 133 134 0
6 -42 45 133 -134 0
6 -42 45 -133 134 0
6 -42 45 -133 -134 0
2 14 33 135 136 0
2 14 33 135 -136 0
2 14 33 -135 136 0
2 14 33 -135 -136 0
-2 11 13 137 138 0
-2 11 13 137 -138 0
-2 11 13 -137 138 0
-2 11 13 -137 -138 0
11 -13 -45 139 140 0
11 -13 -45 139 -140 0
11 -13 -45 -139 140 0
11 -13 -45 -139 -140 0
8 -33 -45 141 142 0
8 -33 -45 141 -142 0
8 -33 -45 -141 142 0
8 -33 -45 -141 -142 0
-8 10 23 143 144 0
-8 10 23 143 -144 0
-8 10 23 -143 144 0
-8 10 23 -143 -144 0
9 -10 23 145 146 0
9 -10 23 145 -146 0
9 -10 23 -145 146 0
9 -10 23 -145 -146 0
-9 -10 23 147 148 0
-9 -10 23 147 -148 0
-9 -10 23 -147 148 0
-9 -10 23 -147 -148 0
-8 11 14 149 150 0
-8 11 14 149 -150 0
-8 11 14 -149 150 0
-8 11 14 -149 -150 0
11 -13 14 151 152 0
11 -13 14 151 -152 0
11 -13 14 -151 152 0
11 -13 14 -151 -152 0
17 29 -42 153 154 0
17 29 -42 153 -154 0
17 29 -42 -153 154 0
17 29 -42 -153 -154 0
9 29 -42 155 156 0
9 29 -42 155 -156 0
9 29 -42 -155 156 0
9 29 -42 -155 -156 0
29 -38 -42 157 158 0
29 -38 -42 157 -158 0
29 -38 -42 -157 158 0
29 -38 -42 -157 -158 0
-5 -29 -40 159 160 0
-5 -29 -40 159 -160 0
-5 -29 -40 -159 160 0
-5 -29 -40 -159 -160 0
-5 -17 -40 161 162 0
-5 -17 -40 161 -162 0
-5 -17 -40 -161 162 0
-5 -17 -40 -161 -162 0
26 -40 -45 163 164 0
26 -40 -45 163 -164 0
26 -40 -45 -163 164 0
26 -40 -45 -163 -164 0
5 10 -38 165 166 0
5 10 -38 165 -166 0
5 10 -38 -165 166 0
5 10 -38 -165 -166 0
-10 -38 -42 167 168 0
-10 -38 -42 167 -168 0
-10 -38 -42 -167 168 0
-10 -38 -42 -167 -168 0
7 38 48 169 170 0
7 38 48 169 -170 0
7 38 48 -169 170 0
7 38 48 -169 -170 0
-7 44 48 171 172 0
-7 44 48 171 -172 0
-7 44 48 -171 172 0
-7 44 48 -171 -172 0
-4 38 48 173 174 0
-4 38 48 173 -174 0
-4 38 48 -173 174 0
-4 38 48 -173 -174 0
-26 38 48 175 176 0
-26 38 48 175 -176 0
-26 38 48 -175 176 0
-26 38 48 -175 -176 0
-11 23 31 177 178 0
-11 23 31 177 -178 0
-11 23 31 -177 178 0
-11 23 31 -177 -178 0
-11 23 -31 179 180 0
-11 23 -31 179 -180 0
-11 23 -31 -179 180 0
-11 23 -31 -179 -180 0
5 -26 44 181 182 0
5 -26 44 181 -182 0
5 -26 44 -181 182 0
5 -26 44 -181 -182 0
-23 -32 39 183 184 0
-23 -32 39 183 -184 0
-23 -32 39 -183 184 0
-23 -32 39 -183 -184 0
-23 -32 -39 185 186 0
-23 -32 -39 185 -186 0
-23 -32 -39 -185 186 0
-23 -32 -39 -185 -186 0
34 -41 -48 187 188 0
34 -41 -48 187 -188 0
34 -41 -48 -187 188 0
34 -41 -48 -187 -188 0
19 -34 -41 189 190 0
19 -34 -41 189 -190 0
19 -34 -41 -189 190 0
19 -34 -41 -189 -190 0
32 -41 -48 191 192 0
32 -41 -48 191 -192 0
32 -41 -48 -191 192 0
32 -41 -48 -191 -192 0
20 -23 -48 193 194 0
20 -23 -48 193 -194 0
20 -23 -48 -193 194 0
20 -23 -48 -193 -194 0
31 34 -44 195 196 0
31 34 -44 195 -196 0
31 34 -44 -195 196 0
31 34 -44 -195 -196 0
31 -34 -44 197 198 0
31 -34 -44 197 -198 0
31 -34 -44 -197 198 0
31 -34 -44 -197 -198 0
31 -32 -34 199 200 0
31 -32 -34 199 -200 0
31 -32 -34 -199 200 0
31 -32 -34 -199 -200 0
-20 31 -47 201 202 0
-20 31 -47 201 -202 0
-20 31 -47 -201 202 0
-20 31 -47 -201 -202 0
4 -29 41 203 204 0
4 -29 41 203 -204 0
4 -29 41 -203 204 0
4 -29 41 -203 -204 0
4 -29 -33 205 206 0
4 -29 -33 205 -206 0
4 -29 -33 -205 206 0
4 -29 -33 -205 -206 0
-4 35 -44 207 208 0
-4 35 -44 207 -208 0
-4 35 -44 -207 208 0
-4 35 -44 -207 -208 0
-4 -29 -44 209 210 0
-4 -29 -44 209 -210 0
-4 -29 -44 -209 210 0
-4 -29 -44 -209 -210 0
22 32 33 211 212 0
22 32 33 211 -212 0
22 32 33 -211 212 0
22 32 33 -211 -212 0
22 32 43 213 214 0
22 32 43 213 -214 0
22 32 43 -213 214 0
22 32 43 -213 -214 0
21 41 48 215 216 0
21 41 48 215 -216 0
21 41 48 -215 216 0
21 41 48 -215 -216 0
-19 21 -48 217 218 0
-19 21 -48 217 -218 0
-19 21 -48 -217 218 0
-19 21 -48 -217 -218 0
21 -32 -48 219 220 0
21 -32 -48 219 -220 0
21 -32 -48 -219 220 0
21 -32 -48 -219 -220 0
-19 -21 43 221 222 0
-19 -21 43 221 -222 0
-19 -21 43 -221 222 0
-19 -21 43 -221 -222 0
-17 22 25 223 224 0
-17 22 25 223 -224 0
-17 22 25 -223 224 0
-17 22 25 -223 -224 0
22 -25 43 225 226 0
22 -25 43 225 -226 0
22 -25 43 -225 226 0
22 -25 43 -225 -226 0
41 -43 50 227 228 0
41 -43 50 227 -228 0
41 -43 50 -227 228 0
41 -43 50 -227 -228 0
41 -43 -50 229 230 0
41 -43 -50 229 -230 0
41 -43 -50 -229 230 0
41 -43 -50 -229 -230 0
-10 -20 39 231 232 0
-10 -20 39 231 -232 0
-10 -20 39 -231 232 0
-10 -20 39 -231 -232 0
-20 26 -39 233 234 0
-20 26 -39 233 -234 0
-20 26 -39 -233 234 0
-20 26 -39 -233 -234 0
-10 -20 41 235 236 0
-10 -20 41 235 -236 0
-10 -20 41 -235 236 0
-10 -20 41 -235 -236 0
-22 -31 39 237 238 0
-22 -31 39 237 -238 0
-22 -31 39 -237 238 0
-22 -31 39 -237 -238 0
-20 -39 -50 239 240 0
-20 -39 -50 239 -240 0
-20 -39 -50 -239 240 0
-20 -39 -50 -239 -240 0
10 -19 -22 241 242 0
10 -19 -22 241 -242 0
10 -19 -22 -241 242 0
10 -19 -22 -241 -242 0
10 15 50 243 244 0
10 15 50 243 -244 0
10 15 50 -243 244 0
10 15 50 -243 -244 0
25 -30 -41 245 246 0
25 -30 -41 245 -246 0
25 -30 -41 -245 246 0
25 -30 -41 -245 -246 0
10 15 -25 247 248 0
10 15 -25 247 -248 0
10 15 -25 -247 248 0
10 15 -25 -247 -248 0
-15 -30 41 249 250 0
-15 -30 41 249 -250 0
-15 -30 41 -249 250 0
-15 -30 41 -249 -250 0
1 -15 -41 251 252 0
1 -15 -41 251 -252 0
1 -15 -41 -251 252 0
1 -15 -41 -251 -252 0
-15 -30 50 253 254 0
-15 -30 50 253 -254 0
-15 -30 50 -253 254 0
-15 -30 50 -253 -254 0
8 30 50 255 256 0
8 30 50 255 -256 0
8 30 50 -255 256 0
8 30 50 -255 -256 0
22 -39 46 257 258 0
22 -39 46 257 -258 0
22 -39 46 -257 258 0
22 -39 46 -257 -258 0
19 -22 47 259 260 0
19 -22 47 259 -260 0
19 -22 47 -259 260 0
19 -22 47 -259 -260 0
-22 46 -47 261 262 0
-22 46 -47 261 -262 0
-22 46 -47 -261 262 0
-22 46 -47 -261 -262 0
-1 19 38 263 264 0
-1 19 38 263 -264 0
-1 19 38 -263 264 0
-1 19 38 -263 -264 0
-1 19 -46 265 266 0
-1 19 -46 265 -266 0
-1 19 -46 -265 266 0
-1 19 -46 -265 -266 0
-1 30 -38 267 268 0
-1 30 -38 267 -268 0
-1 30 -38 -267 268 0
-1 30 -38 -267 -268 0
8 -13 30 269 270 0
8 -13 30 269 -270 0
8 -13 30 -269 270 0
8 -13 30 -269 -270 0
-8 -13 30 271 272 0
-8 -13 30 271 -272 0
-8 -13 30 -271 272 0
-8 -13 30 -271 -272 0
-8 -12 30 273 274 0
-8 -12 30 273 -274 0
-8 -12 30 -273 274 0
-8 -12 30 -273 -274 0
1 -4 -46 275 276 0
1 -4 -46 275 -276 0
1 -4 -46 -275 276 0
1 -4 -46 -275 -276 0
-4 -6 -46 277 278 0
-4 -6 -46 277 -278 0
-4 -6 -46 -277 278 0
-4 -6 -46 -277 -278 0
4 13 -37 279 280 0
4 13 -37 279 -280 0
4 13 -37 -279 280 0
4 13 -37 -279 -280 0
-3 12 45 281 282 0
-3 12 45 281 -282 0
-3 12 45 -281 282 0
-3 12 45 -281 -282 0
-3 38 -45 283 284 0
-3 38 -45 283 -284 0
-3 38 -45 -283 284 0
-3 38 -45 -283 -284 0
-3 12 -38 285 286 0
-3 12 -38 285 -286 0
-3 12 -38 -285 286 0
-3 12 -38 -285 -286 0
-3 12 -25 287 288 0
-3 12 -25 287 -288 0
-3 12 -25 -287 288 0
-3 12 -25 -287 -288 0
13 17 33 289 290 0
13 17 33 289 -290 0
13 17 33 -289 290 0
13 17 33 -289 -290 0
2 -33 37 291 292 0
2 -33 37 291 -292 0
2 -33 37 -291 292 0
2 -33 37 -291 -292 0
13 -33 37 293 294 0
13 -33 37 293 -294 0
13 -33 37 -293 294 0
13 -33 37 -293 -294 0
1 17 -37 295 296 0
1 17 -37 295 -296 0
1 17 -37 -295 296 0
1 17 -37 -295 -296 0
6 -7 13 297 298 0
6 -7 13 297 -298 0
6 -7 13 -297 298 0
6 -7 13 -297 -298 0
-7 13 -30 299 300 0
-7 13 -30 299 -300 0
-7 13 -30 -299 300 0
-7 13 -30 -299 -300 0
-6 -7 26 301 302 0
-6 -7 26 301 -302 0
-6 -7 26 -301 302 0
-6 -7 26 -301 -302 0
1 -6 -26 303 304 0
1 -6 -26 303 -304 0
1 -6 -26 -303 304 0
1 -6 -26 -303 -304 0
3 16 17 305 306 0
3 16 17 305 -306 0
3 16 17 -305 306 0
3 16 17 -305 -306 0
-1 3 -17 307 308 0
-1 3 -17 307 -308 0
-1 3 -17 -307 308 0
-1 3 -17 -307 -308 0
1 -16 44 309 310 0
1 -16 44 309 -310 0
1 -16 44 -309 310 0
1 -16 44 -309 -310 0
-1 3 44 311 312 0
-1 3 44 311 -312 0
-1 3 44 -311 312 0
-1 3 44 -311 -312 0
-16 44 -49 313 314 0
-16 44 -49 313 -314 0
-16 44 -49 -313 314 0
-16 44 -49 -313 -314 0
3 -7 -16 315 316 0
3 -7 -16 315 -316 0
3 -7 -16 -315 316 0
3 -7 -16 -315 -316 0
7 12 -43 317 318 0
7 12 -43 317 -318 0
7 12 -43 -317 318 0
7 12 -43 -317 -318 0
2 4 18 319 320 0
2 4 18 319 -320 0
2 4 18 -319 320 0
2 4 18 -319 -320 0
2 4 -18 321 322 0
2 4 -18 321 -322 0
2 4 -18 -321 322 0
2 4 -18 -321 -322 0
4 36 37 323 324 0
4 36 37 323 -324 0
4 36 37 -323 324 0
4 36 37 -323 -324 0
8 27 -36 325 326 0
8 27 -36 325 -326 0
8 27 -36 -325 326 0
8 27 -36 -325 -326 0
27 -36 43 327 328 0
27 -36 43 327 -328 0
27 -36 43 -327 328 0
27 -36 43 -327 -328 0
7 37 47 329 330 0
7 37 47 329 -330 0
7 37 47 -329 330 0
7 37 47 -329 -330 0
7 -37 47 331 332 0
7 -37 47 331 -332 0
7 -37 47 -331 332 0
7 -37 47 -331 -332 0
7 45 47 333 334 0
7 45 47 333 -334 0
7 45 47 -333 334 0
7 45 47 -333 -334 0
-30 -45 47 335 336 0
-30 -45 47 335 -336 0
-30 -45 47 -335 336 0
-30 -45 47 -335 -336 0
18 29 36 337 338 0
18 29 36 337 -338 0
18 29 36 -337 338 0
18 29 36 -337 -338 0
19 27 -47 339 340 0
19 27 -47 339 -340 0
19 27 -47 -339 340 0
19 27 -47 -339 -340 0
-2 -19 -47 341 342 0
-2 -19 -47 341 -342 0
-2 -19 -47 -341 342 0
-2 -19 -47 -341 -342 0
18 -27 36 343 344 0
18 -27 36 343 -344 0
18 -27 36 -343 344 0
18 -27 36 -343 -344 0
-2 12 18 345 346 0
-2 12 18 345 -346 0
-2 12 18 -345 346 0
-2 12 18 -345 -346 0
-2 -12 50 347 348 0
-2 -12 50 347 -348 0
-2 -12 50 -347 348 0
-2 -12 50 -347 -348 0
18 -36 -50 349 350 0
18 -36 -50 349 -350 0
18 -36 -50 -349 350 0
18 -36 -50 -349 -350 0
-27 34 -36 351 352 0
-27 34 -36 351 -352 0
-27 34 -36 -351 352 0
-27 34 -36 -351 -352 0
8 15 -18 353 354 0
8 15 -18 353 -354 0
8 15 -18 -353 354 0
8 15 -18 -353 -354 0
-8 15 -18 355 356 0
-8 15 -18 355 -356 0
-8 15 -18 -355 356 0
-8 15 -18 -355 -356 0
-15 -33 -47 357 358 0
-15 -33 -47 357 -358 0
-15 -33 -47 -357 358 0
-15 -33 -47 -357 -358 0
-15 25 33 359 360 0
-15 25 33 359 -360 0
-15 25 33 -359 360 0
-15 25 33 -359 -360 0
21 33 -34 361 362 0
21 33 -34 361 -362 0
21 33 -34 -361 362 0
21 33 -34 -361 -362 0
-13 20 -21 363 364 0
-13 20 -21 363 -364 0
-13 20 -21 -363 364 0
-13 20 -21 -363 -364 0
-11 -12 -20 365 366 0
-11 -12 -20 365 -366 0
-11 -12 -20 -365 366 0
-11 -12 -20 -365 -366 0
5 -21 39 367 368 0
5 -21 39 367 -368 0
5 -21 39 -367 368 0
5 -21 39 -367 -368 0
-12 15 -21 369 370 0
-12 15 -21 369 -370 0
-12 15 -21 -369 370 0
-12 15 -21 -369 -370 0
-31 32 -50 371 372 0
-31 32 -50 371 -372 0
-31 32 -50 -371 372 0
-31 32 -50 -371 -372 0
-12 -23 40 373 374 0
-12 -23 40 373 -374 0
-12 -23 40 -373 374 0
-12 -23 40 -373 -374 0
-11 21 45 375 376 0
-11 21 45 375 -376 0
-11 21 45 -375 376 0
-11 21 45 -375 -376 0
-18 24 -31 377 378 0
-18 24 -31 377 -378 0
-18 24 -31 -377 378 0
-18 24 -31 -377 -378 0
20 -31 -37 379 380 0
20 -31 -37 379 -380 0
20 -31 -37 -379 380 0
20 -31 -37 -379 -380 0
-23 40 45 381 382 0
-23 40 45 381 -382 0
-23 40 45 -381 382 0
-23 40 45 -381 -382 0
-22 39 49 383 384 0
-22 39 49 383 -384 0
-22 39 49 -383 384 0
-22 39 49 -383 -384 0
-18 -39 -50 385 386 0
-18 -39 -50 385 -386 0
-18 -39 -50 -385 386 0
-18 -39 -50 -385 -386 0
14 20 23 387 388 0
14 20 23 387 -388 0
14 20 23 -387 388 0
14 20 23 -387 -388 0
20 21 -21 389 390 0
20 21 -21 389 -390 0
20 21 -21 -389 390 0
20 21 -21 -389 -390 0
